p cnf 289 1736
43 -28 -17 -10 36 0
-49 -50 -18 46 32 0
-3 -43 -10 14 2 0
34 14 -33 -38 15 0
29 30 -42 -36 34 0
34 23 -15 40 2 0
36 31 7 -20 -49 0
-44 -4 -36 18 -30 0
-37 -21 20 46 -31 0
15 11 -27 20 32 0
28 -33 -43 17 -26 0
-20 28 -6 22 36 0
-49 38 -3 24 19 0
-33 15 8 34 21 0
-46 40 -15 -41 -5 0
40 6 19 14 5 0
-18 -41 45 31 -14 0
37 4 -24 5 41 0
21 -48 25 -41 30 0
33 24 -37 -17 2 0
-30 41 -38 36 50 0
1 28 45 -44 27 0
22 -13 44 -26 -42 0
-3 47 -6 5 -43 0
46 5 8 6 -9 0
33 -35 -22 -49 -39 0
33 -4 -48 3 14 0
31 -50 37 49 -34 0
32 -25 -16 -33 -45 0
-43 15 31 -19 -21 0
-1 17 -24 -12 2 0
-32 1 6 13 -40 0
-29 -3 9 46 -41 0
-26 -43 -28 -4 -25 0
20 -25 16 -26 14 0
-39 -37 44 -35 50 0
-14 31 -45 3 26 0
-43 -11 36 -44 47 0
-44 -41 29 30 -15 0
-9 -50 -27 -48 44 0
32 -38 40 -3 -10 0
35 28 -26 -43 -24 0
-15 -37 -46 -42 -18 0
-32 36 -4 -24 -6 0
-3 -8 -13 -17 -2 0
-44 -23 8 -30 28 0
-40 30 13 15 -37 0
26 41 11 39 -38 0
6 11 42 43 -3 0
23 37 -43 -10 30 0
-35 -28 42 13 -37 0
18 25 14 -31 -41 0
37 22 -1 -18 24 0
13 -43 10 -7 41 0
17 -30 -4 37 41 0
-39 -40 -37 -26 30 0
17 -13 10 34 33 0
-27 41 -50 33 23 0
-33 7 -19 37 4 0
-50 40 -45 48 5 0
28 -18 14 44 -47 0
42 2 33 -36 4 0
-47 45 42 33 -24 0
40 -18 -46 -13 48 0
29 -43 -22 -24 -25 0
-6 45 24 -13 -46 0
-1 9 -14 29 31 0
45 -37 -28 34 -5 0
-10 27 -28 -9 -19 0
5 -50 21 32 -24 0
3 -27 -22 -48 45 0
45 -12 35 -13 3 0
-23 9 -40 -29 39 0
-20 2 18 3 49 0
-22 37 28 -46 -35 0
-33 -38 -16 49 48 0
4 -17 26 -36 -34 0
17 48 6 21 -22 0
41 -16 9 -18 -35 0
-24 -25 -17 -33 1 0
-12 -42 37 16 35 0
-12 -42 33 -34 36 0
-17 7 31 -46 -28 0
25 -15 -21 -24 -1 0
18 31 6 39 -25 0
-4 9 43 -26 -24 0
-49 -39 16 -24 23 0
30 40 -33 -12 25 0
33 -46 17 30 7 0
7 -27 11 -38 39 0
-45 -41 -36 -47 44 0
-47 -11 -2 -45 -38 0
-21 -22 -19 11 1 0
-42 -24 -43 -17 47 0
-50 29 -12 -10 -46 0
11 24 -34 -31 17 0
-6 11 33 40 -42 0
-48 -43 -17 40 29 0
-12 -9 -31 -40 -49 0
-27 -41 -30 -12 -26 0
-21 -49 40 -26 -12 0
-41 -48 -33 -29 2 0
41 22 32 40 1 0
33 -25 -36 12 -22 0
22 25 40 -1 -45 0
-25 -17 -37 9 -13 0
-6 36 -40 37 -12 0
27 2 37 32 -30 0
14 16 18 -40 -41 0
40 14 33 22 3 0
-33 -19 24 -30 18 0
-1 12 42 48 -11 0
2 -5 -10 -9 -50 0
-19 27 25 -44 -39 0
16 -35 31 -26 18 0
16 15 9 12 20 0
-31 -26 -45 30 35 0
-42 -27 9 13 -50 0
-20 16 40 -46 28 0
44 -12 1 3 37 0
-13 -18 -34 -30 -9 0
8 30 -46 -41 37 0
29 -22 -40 -37 39 0
-2 14 36 -5 -40 0
42 -22 -2 -14 41 0
-17 26 -13 3 36 0
49 9 10 -40 -38 0
-26 9 32 -41 -33 0
-4 38 8 -37 36 0
36 -35 -12 -24 -49 0
35 36 -50 22 45 0
-18 9 -8 -28 14 0
25 50 -49 35 14 0
-40 11 -47 31 24 0
34 -30 20 23 9 0
18 47 8 -32 26 0
19 -31 16 24 -48 0
22 33 -24 -10 -12 0
44 -3 -39 36 28 0
44 -37 50 33 19 0
25 7 -45 -24 32 0
-48 39 35 29 -1 0
-46 -44 16 -50 48 0
-43 -24 -9 46 22 0
21 -48 -19 -25 -34 0
31 29 5 26 -16 0
-4 -36 -44 -20 42 0
43 -25 12 -2 -26 0
39 5 38 3 -15 0
49 -48 3 2 -8 0
36 -11 -7 38 -5 0
-26 -7 -12 -31 33 0
25 14 -24 42 -16 0
5 -4 22 -43 32 0
49 -9 -41 45 3 0
-37 7 -38 -10 -34 0
41 30 -13 -28 -20 0
12 2 49 -37 42 0
-44 -48 -46 -24 42 0
-37 -8 -6 45 -26 0
6 13 -14 4 44 0
5 4 38 -7 20 0
39 38 31 10 -25 0
-10 43 -38 -26 23 0
18 -16 31 -11 38 0
3 -23 25 2 -44 0
23 -32 -39 -22 -37 0
12 -18 -13 -38 30 0
21 13 -30 28 45 0
-36 46 -7 48 10 0
-50 -26 10 -25 -16 0
29 2 -37 -12 8 0
-35 -38 22 -10 6 0
4 -29 -11 34 -50 0
8 47 -5 11 34 0
47 -18 -15 40 -43 0
-38 10 29 33 30 0
44 11 -27 16 -3 0
8 3 14 13 -20 0
-23 5 -1 -32 -30 0
10 -1 -29 38 34 0
-24 -23 19 -27 39 0
3 -1 -25 -4 -49 0
-10 -13 -44 -7 25 0
5 43 -25 7 -26 0
15 -4 -27 26 -36 0
22 -19 6 31 -37 0
30 5 -38 26 -6 0
-4 -25 -47 -7 41 0
-35 -44 -14 -7 -30 0
29 1 5 6 -45 0
25 -9 -5 39 42 0
30 -46 24 -13 -9 0
22 -20 -35 28 18 0
8 33 -6 42 30 0
23 13 10 39 -34 0
-47 20 13 37 -28 0
-29 -2 -45 -10 -39 0
-25 40 -3 -5 -18 0
22 -14 32 49 30 0
4 -38 -9 -1 -5 0
10 5 -14 48 -38 0
-15 -37 -29 -39 23 0
-31 9 3 14 6 0
-4 13 21 35 7 0
-36 -17 30 -23 -12 0
25 -32 -39 6 -2 0
37 -43 48 -46 47 0
48 -28 -34 3 37 0
-9 -35 15 -37 46 0
-42 -33 13 -5 -21 0
-34 6 37 -1 -12 0
14 -2 27 -24 40 0
16 -6 18 40 -32 0
-17 25 24 18 -40 0
-3 49 -34 9 39 0
12 46 -40 -25 39 0
-26 -35 37 40 25 0
28 -11 17 2 -16 0
-1 50 30 -8 36 0
14 18 -36 8 33 0
-35 -37 32 7 47 0
-10 -9 -30 40 44 0
33 -22 18 48 -34 0
36 -48 3 -49 5 0
-42 -20 -39 -36 31 0
-48 20 -50 -14 7 0
49 -2 17 -8 -35 0
47 -43 32 10 50 0
46 -13 -49 18 -35 0
44 3 32 27 -26 0
-42 27 -23 4 20 0
-38 -2 42 -17 32 0
30 -35 46 -12 16 0
-28 -9 -26 -18 47 0
-21 -3 8 23 29 0
37 -11 24 28 -2 0
6 3 -41 50 38 0
-21 22 -11 -38 13 0
-21 8 30 -23 -38 0
47 -3 -5 -27 -50 0
-42 -33 -48 -43 26 0
38 -4 10 -50 45 0
-15 -1 28 12 -5 0
19 47 1 -25 49 0
14 -15 -38 36 25 0
-38 -28 35 -49 -4 0
-13 37 -50 11 -21 0
-18 15 6 12 -50 0
-34 -11 32 30 5 0
34 -28 -31 15 -41 0
-9 -35 20 45 23 0
20 -36 45 -50 32 0
31 15 40 26 42 0
10 14 -25 48 22 0
34 14 8 12 4 0
11 48 -37 49 14 0
29 4 31 5 -2 0
-8 3 28 43 10 0
-38 19 -46 34 49 0
-9 -50 -3 -36 -27 0
-29 -36 -6 32 18 0
50 -6 -31 26 17 0
-47 -5 17 -9 45 0
39 15 36 20 7 0
11 23 6 -5 24 0
44 -30 -25 33 22 0
-37 -27 1 17 30 0
-44 -50 -16 -19 3 0
-4 29 13 11 -16 0
41 46 -6 -22 -42 0
25 36 -3 42 -44 0
18 -10 -21 13 27 0
-20 23 28 12 40 0
2 -30 -33 -41 -45 0
46 34 -36 -39 32 0
-27 -18 -25 -4 6 0
-49 28 34 -27 50 0
-30 -33 -39 -49 -48 0
-37 20 15 -42 -32 0
-16 -42 -38 10 -14 0
-47 27 -22 -41 -33 0
-40 8 -44 -31 17 0
9 -42 36 -50 -46 0
46 40 8 22 35 0
30 -43 28 -5 50 0
22 -16 42 45 -36 0
33 -18 3 -23 -7 0
24 9 41 25 -27 0
-8 36 -44 38 15 0
-6 -24 19 -28 22 0
2 8 24 -15 -43 0
-3 50 -23 -32 -27 0
49 -30 42 -37 -36 0
1 -12 6 -10 39 0
-4 14 15 2 34 0
43 -36 14 32 -11 0
-41 -12 4 43 -35 0
-3 -46 -27 -50 33 0
22 -8 -45 -12 -36 0
-17 -49 -43 -30 50 0
-49 -39 -13 -15 -43 0
7 -39 -6 37 23 0
-13 -33 -40 -36 2 0
3 -29 14 26 7 0
-22 4 -16 -26 -11 0
-28 49 7 -11 9 0
29 49 -45 38 13 0
18 -40 -9 -23 37 0
-41 -38 10 30 -48 0
-36 -14 -35 1 -19 0
27 7 35 31 -30 0
-6 -27 11 39 5 0
-17 -33 -22 37 -45 0
-39 -22 17 -9 -3 0
13 -28 5 -32 -9 0
-47 19 16 -49 -31 0
4 14 -36 -1 40 0
23 17 -30 9 -39 0
-38 -46 1 -32 24 0
-30 -42 1 -2 26 0
-50 26 42 46 48 0
17 -32 27 23 -25 0
-12 -41 8 34 6 0
-23 -27 -24 15 -34 0
14 17 -37 11 43 0
6 -40 -24 5 -47 0
-47 -42 4 -8 50 0
44 22 -39 32 2 0
-8 -39 19 -32 -34 0
7 -18 16 41 -28 0
36 -15 13 11 19 0
48 -22 -38 46 25 0
-40 -12 -19 47 39 0
49 -43 47 -39 35 0
15 21 -10 -6 2 0
-20 -17 19 7 21 0
-43 41 -48 44 20 0
25 -29 -31 -35 -41 0
-14 10 -36 50 -1 0
-25 -44 -15 2 -34 0
-48 23 -12 -24 4 0
39 -1 38 -35 -46 0
-49 -47 -50 25 -26 0
-22 21 18 -34 20 0
-44 29 -43 -50 -18 0
-7 40 9 2 -38 0
-6 41 42 43 -33 0
-17 47 -6 20 31 0
50 -6 -39 15 -13 0
11 26 23 30 -19 0
-21 -20 -30 11 38 0
-35 18 5 15 -26 0
39 -20 -48 14 -46 0
-30 -1 3 12 -32 0
-6 -31 22 29 12 0
-45 -11 49 21 29 0
-41 -18 8 28 -7 0
38 -49 -45 26 8 0
28 -45 -24 40 16 0
-27 -26 16 12 -32 0
-10 1 23 33 12 0
-2 -33 -23 9 32 0
-35 -12 -19 -16 39 0
-18 -26 -33 46 28 0
-14 -17 -48 50 49 0
33 15 48 6 30 0
7 43 50 24 25 0
-30 -20 -50 38 -40 0
-43 21 -14 -38 -12 0
33 -47 11 -12 -22 0
-38 15 21 -5 -13 0
3 -29 13 -33 -9 0
-4 8 7 -28 -25 0
-23 15 49 6 28 0
16 -3 50 -30 -38 0
24 -38 -28 -2 -43 0
-50 32 -40 29 -5 0
12 24 33 49 10 0
36 -41 24 -30 35 0
-29 -50 -45 -48 -14 0
36 24 31 -5 14 0
-39 -13 -26 -18 27 0
-46 49 -35 32 -16 0
44 10 33 16 -35 0
-50 10 12 -31 -14 0
-6 -48 -35 -25 21 0
-9 8 4 34 40 0
-2 -33 43 -9 30 0
4 48 -35 -18 -7 0
13 14 -46 11 -20 0
41 38 50 2 39 0
-37 -44 -32 -6 -2 0
31 1 7 9 23 0
-30 -46 4 32 -48 0
9 31 8 -49 5 0
-23 -38 -40 -43 -14 0
17 -6 -45 27 31 0
-24 -44 -26 -32 4 0
11 23 -39 -46 -20 0
-18 25 -3 -27 -9 0
-17 -30 -47 -46 3 0
-28 -33 11 -22 -50 0
-12 -46 22 38 -36 0
-23 36 37 -41 -10 0
-24 -41 4 22 -3 0
20 1 -45 50 4 0
11 -14 -47 -42 43 0
-5 -8 -9 -42 -29 0
-13 23 -32 1 34 0
5 13 -3 -29 39 0
-14 35 32 46 13 0
49 -33 35 18 -26 0
9 -18 32 -20 14 0
-20 29 -42 -9 -3 0
33 -9 41 40 46 0
-21 -50 32 38 23 0
-13 -12 -37 49 31 0
-46 14 37 -21 -9 0
40 -29 9 -28 6 0
-3 14 -19 26 25 0
-14 26 43 11 24 0
-43 17 37 -14 -30 0
-6 50 -10 -8 26 0
-20 42 -32 46 29 0
3 29 17 36 42 0
4 -11 20 -27 -41 0
32 -45 -13 25 -33 0
16 -25 -39 11 -23 0
-5 45 -21 9 -47 0
31 40 44 -9 -46 0
40 26 48 -37 -31 0
50 -25 -46 -21 -2 0
-43 -10 -25 -30 4 0
20 -38 -19 18 -28 0
-16 48 42 50 -21 0
26 21 -20 19 -40 0
18 -44 -45 46 4 0
-4 -14 -21 -19 15 0
22 -7 -20 -12 -13 0
-22 -50 -21 -27 -45 0
27 -20 -1 -31 33 0
8 2 12 40 15 0
-28 -33 -48 32 -43 0
-24 30 26 3 -44 0
-42 27 -47 -11 28 0
13 25 -16 -3 -29 0
45 40 -15 -25 26 0
14 -47 27 20 -35 0
45 -7 -49 -32 -11 0
30 39 -27 9 -1 0
1 34 7 -13 -48 0
-8 12 -34 -37 -28 0
43 -15 -26 -47 -48 0
-14 -46 -7 49 38 0
22 46 38 50 40 0
3 45 32 1 18 0
43 -24 32 28 -49 0
-11 3 49 48 50 0
-24 14 -18 -46 6 0
-17 -23 -10 48 -22 0
40 -8 -26 -4 44 0
2 -45 37 1 -32 0
23 25 5 1 -20 0
9 -46 45 30 -37 0
10 -13 -20 9 -29 0
-33 17 8 -49 -9 0
-34 13 -5 -28 -26 0
-24 -47 -27 -37 1 0
12 -20 21 -43 15 0
-35 10 -30 7 17 0
-35 -26 45 14 5 0
-15 40 36 26 9 0
36 14 -1 -19 33 0
14 30 -5 49 12 0
35 -28 -32 43 -41 0
-9 -27 16 41 30 0
-41 -9 -38 -12 44 0
39 20 -4 42 -1 0
-17 13 46 38 43 0
-40 -37 -48 42 24 0
-2 30 44 42 -1 0
7 41 10 26 12 0
20 24 -41 -5 -7 0
11 -8 13 -48 44 0
-49 -4 -30 46 17 0
-28 21 42 -24 -2 0
20 47 -48 -5 -37 0
-40 33 -21 -29 15 0
-22 -4 -7 47 -35 0
37 33 29 27 50 0
28 34 46 -31 -16 0
-23 -47 49 30 -46 0
-39 -27 -41 -9 -3 0
9 31 1 35 -25 0
-13 -18 5 38 4 0
36 47 -6 -1 30 0
-9 24 -20 -33 31 0
35 1 -10 -19 8 0
6 -10 16 -9 21 0
-18 38 -44 14 50 0
-30 -43 -6 31 2 0
-12 -29 -6 -36 33 0
12 -42 22 7 27 0
-1 29 -31 26 34 0
-25 -10 -42 15 36 0
-37 -16 -5 21 -13 0
40 29 22 -9 -19 0
-29 -11 -47 -30 -35 0
-23 24 39 -34 -32 0
36 34 -22 40 18 0
-22 21 44 -28 34 0
17 -8 3 35 32 0
36 -29 31 2 -27 0
49 -47 12 46 29 0
-17 16 21 7 -22 0
-22 30 5 -37 11 0
-23 31 32 14 -8 0
-9 26 8 -43 1 0
-16 47 3 -1 36 0
7 -19 -1 40 29 0
-13 -26 -49 -40 50 0
43 3 1 35 -27 0
-39 -47 20 -28 -17 0
44 -24 -14 -22 -8 0
10 48 1 19 -11 0
-50 -47 19 10 26 0
-2 -22 -8 -49 -31 0
-12 -5 -2 9 -13 0
30 38 -41 34 14 0
-34 45 -21 25 -37 0
-47 21 17 -39 27 0
-20 30 -34 -16 13 0
-26 -46 -11 25 -4 0
13 40 -5 -43 -10 0
39 12 -25 36 -38 0
4 5 -49 -33 13 0
8 -11 5 -36 -3 0
-34 -49 -14 8 -36 0
-38 -40 31 -44 -9 0
4 -42 45 -18 -19 0
-4 37 25 -40 14 0
-36 24 20 -33 38 0
8 7 23 16 1 0
22 -34 27 31 14 0
-14 6 -10 -32 -3 0
18 14 47 -29 36 0
10 -7 15 43 18 0
-44 -35 28 -47 -17 0
-13 14 -47 5 -50 0
7 35 -12 -38 34 0
-8 -50 43 21 4 0
-22 37 2 -15 32 0
-6 -38 -45 30 -11 0
-8 -39 -26 22 -7 0
-15 -26 11 24 45 0
3 -8 -31 40 15 0
-20 39 28 -10 48 0
18 16 -24 11 13 0
10 41 -15 22 -49 0
-10 24 -44 15 -17 0
6 5 29 1 -3 0
19 -11 23 15 -10 0
1 -9 -30 -18 -34 0
-28 20 -15 44 6 0
-33 -32 -25 8 12 0
-11 41 26 39 -33 0
-40 45 -48 47 49 0
5 10 -45 23 42 0
-37 -1 -10 -25 21 0
18 27 38 -15 42 0
-7 -18 2 -32 -13 0
-43 50 -9 -35 34 0
21 6 47 45 13 0
-47 46 -28 -15 -2 0
-40 -25 -41 -11 2 0
30 -6 -18 4 -41 0
-5 -39 -25 -26 -50 0
-33 28 40 42 -3 0
4 -3 -46 -31 9 0
-47 27 12 5 6 0
37 7 -42 9 47 0
-33 48 31 -17 14 0
-34 -43 -12 -33 -2 0
35 19 -38 18 -12 0
-46 -35 4 -14 45 0
-48 -41 -27 18 -13 0
-15 -24 -34 -22 -5 0
-44 32 47 -38 22 0
46 44 -34 26 -5 0
32 -46 38 50 -45 0
-24 -1 -6 -17 15 0
29 -33 -15 -19 -39 0
-23 12 5 34 31 0
4 26 18 -28 50 0
-24 19 46 -11 26 0
-20 40 -2 -1 -39 0
45 29 -12 -7 -30 0
37 39 -48 20 13 0
1 -2 50 26 5 0
36 43 11 25 -14 0
20 25 50 -11 -12 0
49 -36 -16 8 9 0
1 44 -4 6 -33 0
10 -49 22 48 -20 0
-4 1 10 7 -5 0
7 -24 31 23 -11 0
42 17 21 34 46 0
47 -7 -2 37 -36 0
-17 1 19 -2 -48 0
8 -29 -22 38 20 0
-19 -37 31 -17 10 0
-23 20 -34 28 4 0
-23 -9 40 -4 7 0
43 -45 -50 38 42 0
-8 -38 -42 -28 24 0
32 -26 -35 36 11 0
-6 -14 -32 -43 34 0
-21 -26 -48 -34 -5 0
-20 2 39 29 49 0
38 -4 -1 8 -2 0
32 -47 -46 17 -42 0
20 -24 -49 46 -1 0
14 -11 -5 34 15 0
41 -4 24 10 -36 0
-37 20 14 -34 47 0
9 -29 2 -22 -20 0
-32 35 -22 -31 12 0
20 28 -37 35 11 0
47 -31 11 3 29 0
-42 10 39 -18 -37 0
-50 -30 -46 -19 48 0
-16 5 39 30 20 0
43 32 24 -1 -37 0
-22 -35 -45 -2 20 0
-27 -34 -17 6 36 0
-21 36 41 -26 44 0
23 21 29 -22 -8 0
41 -47 -35 -39 42 0
17 35 -34 -3 2 0
35 9 -20 -43 -8 0
10 -33 -49 -32 -41 0
-37 -33 13 -24 -31 0
48 28 -24 11 -45 0
24 17 -9 -48 18 0
22 -43 35 -44 16 0
-4 -3 50 38 30 0
-19 -32 45 -40 7 0
-20 23 48 -50 36 0
34 48 32 -1 -44 0
35 44 4 28 48 0
-39 -3 24 -44 -45 0
1 35 -28 16 -36 0
-48 24 8 -42 39 0
-36 19 -2 -42 41 0
21 48 -33 9 -40 0
-10 -16 -34 19 -36 0
7 41 -46 34 -32 0
28 -13 39 -43 -35 0
33 -25 -39 -49 29 0
2 28 -30 -40 39 0
-34 5 17 9 -47 0
-10 -25 3 32 -6 0
-43 11 19 6 33 0
-38 30 25 -18 -10 0
-14 26 32 -25 46 0
43 -21 20 40 -2 0
-4 -39 -9 -2 34 0
-10 50 -7 20 -33 0
27 -40 -25 -19 47 0
-4 9 -3 -15 -43 0
41 31 24 -50 -2 0
44 11 -25 -6 -39 0
-24 19 -43 25 -48 0
33 -7 -41 26 -24 0
-34 39 -29 -14 17 0
-8 -46 -4 20 -40 0
40 -6 -9 -3 35 0
-32 18 -5 14 4 0
-29 10 -47 -20 42 0
35 47 13 30 -17 0
-4 27 20 19 -12 0
23 40 -7 10 -33 0
10 -13 4 15 -26 0
31 41 43 44 38 0
-27 50 -12 23 48 0
32 43 -47 7 49 0
18 -38 -43 -47 -10 0
46 40 26 12 23 0
-20 -26 -5 -39 -11 0
-9 -33 42 43 -19 0
24 31 14 -30 -18 0
-47 13 -37 -16 -21 0
-10 -27 -14 3 -46 0
-12 -34 7 39 -25 0
-38 -11 -39 -41 24 0
13 -18 -40 -36 31 0
49 37 36 -31 -39 0
8 -13 -31 28 43 0
-22 -36 50 -46 -11 0
38 26 5 45 -44 0
-29 41 -38 24 -10 0
20 -45 -40 7 32 0
8 11 -26 43 -38 0
2 -50 -11 22 -26 0
-19 -36 35 47 -39 0
-14 -9 15 -33 42 0
30 28 -25 -15 -46 0
-2 48 -43 -16 -3 0
19 -8 -4 38 -27 0
-37 -4 -7 -36 48 0
-20 46 6 -10 -34 0
-42 22 41 47 50 0
-32 29 40 -9 35 0
28 7 -24 -38 4 0
48 30 12 17 9 0
-31 -3 9 -5 37 0
-39 6 20 -23 30 0
6 -2 20 -1 -45 0
-19 20 31 14 29 0
-15 9 41 30 34 0
34 39 -31 23 -50 0
49 45 -47 23 6 0
-44 40 20 -7 -33 0
-45 29 5 -11 -6 0
-43 24 -50 18 -30 0
37 7 -16 8 21 0
32 -48 -24 -40 -41 0
19 16 12 31 -49 0
-42 23 40 -12 20 0
32 40 13 49 -6 0
33 28 50 -44 35 0
16 -49 -6 22 28 0
-1 -49 19 -37 24 0
6 -10 15 46 31 0
-11 -5 -44 -9 33 0
-1 4 19 -26 -11 0
29 -26 1 47 9 0
23 27 -7 28 14 0
-45 -23 -15 -9 47 0
-50 -28 3 -11 -30 0
-16 42 6 2 -28 0
-21 3 -38 33 -16 0
39 -10 -38 -25 16 0
-27 -3 47 -30 44 0
40 -48 38 42 45 0
-14 -35 -44 39 -9 0
-24 16 -38 19 -32 0
16 -40 -3 -26 -35 0
-39 -43 -13 31 6 0
-3 4 51 0
3 4 -51 0
-3 -4 -51 0
3 -4 51 0
-5 9 52 0
5 9 -52 0
-5 -9 -52 0
5 -9 52 0
17 -18 53 0
-17 -18 -53 0
17 18 -53 0
-17 18 53 0
-19 -22 54 0
19 -22 -54 0
-19 22 -54 0
19 22 54 0
23 24 55 0
-23 24 -55 0
23 -24 -55 0
-23 -24 55 0
26 29 56 0
-26 29 -56 0
26 -29 -56 0
-26 -29 56 0
30 -31 57 0
-30 -31 -57 0
30 31 -57 0
-30 31 57 0
-34 35 58 0
34 35 -58 0
-34 -35 -58 0
34 -35 58 0
-37 39 59 0
37 39 -59 0
-37 -39 -59 0
37 -39 59 0
-43 -44 60 0
43 -44 -60 0
-43 44 -60 0
43 44 60 0
48 -50 61 0
-48 -50 -61 0
48 50 -61 0
-48 50 61 0
51 -52 62 0
-51 -52 -62 0
51 52 -62 0
-51 52 62 0
53 -54 63 0
-53 -54 -63 0
53 54 -63 0
-53 54 63 0
55 -56 64 0
-55 -56 -64 0
55 56 -64 0
-55 56 64 0
57 -58 65 0
-57 -58 -65 0
57 58 -65 0
-57 58 65 0
59 -60 66 0
-59 -60 -66 0
59 60 -66 0
-59 60 66 0
61 -62 67 0
-61 -62 -67 0
61 62 -67 0
-61 62 67 0
63 -64 68 0
-63 -64 -68 0
63 64 -68 0
-63 64 68 0
65 -66 69 0
-65 -66 -69 0
65 66 -69 0
-65 66 69 0
-67 -68 69 0
67 -68 -69 0
-67 68 -69 0
67 68 69 0
2 -3 70 0
-2 -3 -70 0
2 3 -70 0
-2 3 70 0
-4 6 71 0
4 6 -71 0
-4 -6 -71 0
4 -6 71 0
-11 -12 72 0
11 -12 -72 0
-11 12 -72 0
11 12 72 0
-17 19 73 0
17 19 -73 0
-17 -19 -73 0
17 -19 73 0
20 -25 74 0
-20 -25 -74 0
20 25 -74 0
-20 25 74 0
28 -29 75 0
-28 -29 -75 0
28 29 -75 0
-28 29 75 0
30 32 76 0
-30 32 -76 0
30 -32 -76 0
-30 -32 76 0
-33 -36 77 0
33 -36 -77 0
-33 36 -77 0
33 36 77 0
37 39 78 0
-37 39 -78 0
37 -39 -78 0
-37 -39 78 0
-40 41 79 0
40 41 -79 0
-40 -41 -79 0
40 -41 79 0
42 -43 80 0
-42 -43 -80 0
42 43 -80 0
-42 43 80 0
-45 -46 81 0
45 -46 -81 0
-45 46 -81 0
45 46 81 0
70 -71 82 0
-70 -71 -82 0
70 71 -82 0
-70 71 82 0
72 -73 83 0
-72 -73 -83 0
72 73 -83 0
-72 73 83 0
74 -75 84 0
-74 -75 -84 0
74 75 -84 0
-74 75 84 0
76 -77 85 0
-76 -77 -85 0
76 77 -85 0
-76 77 85 0
78 -79 86 0
-78 -79 -86 0
78 79 -86 0
-78 79 86 0
80 -81 87 0
-80 -81 -87 0
80 81 -87 0
-80 81 87 0
82 -83 88 0
-82 -83 -88 0
82 83 -88 0
-82 83 88 0
84 -85 89 0
-84 -85 -89 0
84 85 -89 0
-84 85 89 0
86 -87 90 0
-86 -87 -90 0
86 87 -90 0
-86 87 90 0
-88 -89 90 0
88 -89 -90 0
-88 89 -90 0
88 89 90 0
-1 -2 91 0
1 -2 -91 0
-1 2 -91 0
1 2 91 0
6 -8 92 0
-6 -8 -92 0
6 8 -92 0
-6 8 92 0
9 10 93 0
-9 10 -93 0
9 -10 -93 0
-9 -10 93 0
-13 -17 94 0
13 -17 -94 0
-13 17 -94 0
13 17 94 0
-18 -19 95 0
18 -19 -95 0
-18 19 -95 0
18 19 95 0
-20 21 96 0
20 21 -96 0
-20 -21 -96 0
20 -21 96 0
22 23 97 0
-22 23 -97 0
22 -23 -97 0
-22 -23 97 0
-24 26 98 0
24 26 -98 0
-24 -26 -98 0
24 -26 98 0
27 28 99 0
-27 28 -99 0
27 -28 -99 0
-27 -28 99 0
30 -32 100 0
-30 -32 -100 0
30 32 -100 0
-30 32 100 0
-33 -34 101 0
33 -34 -101 0
-33 34 -101 0
33 34 101 0
36 -37 102 0
-36 -37 -102 0
36 37 -102 0
-36 37 102 0
38 -40 103 0
-38 -40 -103 0
38 40 -103 0
-38 40 103 0
41 47 104 0
-41 47 -104 0
41 -47 -104 0
-41 -47 104 0
90 -91 105 0
-90 -91 -105 0
90 91 -105 0
-90 91 105 0
92 -93 106 0
-92 -93 -106 0
92 93 -106 0
-92 93 106 0
94 -95 107 0
-94 -95 -107 0
94 95 -107 0
-94 95 107 0
96 -97 108 0
-96 -97 -108 0
96 97 -108 0
-96 97 108 0
98 -99 109 0
-98 -99 -109 0
98 99 -109 0
-98 99 109 0
100 -101 110 0
-100 -101 -110 0
100 101 -110 0
-100 101 110 0
102 -103 111 0
-102 -103 -111 0
102 103 -111 0
-102 103 111 0
104 -105 112 0
-104 -105 -112 0
104 105 -112 0
-104 105 112 0
106 -107 113 0
-106 -107 -113 0
106 107 -113 0
-106 107 113 0
108 -109 114 0
-108 -109 -114 0
108 109 -114 0
-108 109 114 0
110 -111 115 0
-110 -111 -115 0
110 111 -115 0
-110 111 115 0
112 -113 116 0
-112 -113 -116 0
112 113 -116 0
-112 113 116 0
114 -115 117 0
-114 -115 -117 0
114 115 -117 0
-114 115 117 0
116 117 0
-116 -117 0
1 -2 118 0
-1 -2 -118 0
1 2 -118 0
-1 2 118 0
-3 -4 119 0
3 -4 -119 0
-3 4 -119 0
3 4 119 0
5 -8 120 0
-5 -8 -120 0
5 8 -120 0
-5 8 120 0
-9 12 121 0
9 12 -121 0
-9 -12 -121 0
9 -12 121 0
-13 16 122 0
13 16 -122 0
-13 -16 -122 0
13 -16 122 0
19 20 123 0
-19 20 -123 0
19 -20 -123 0
-19 -20 123 0
22 23 124 0
-22 23 -124 0
22 -23 -124 0
-22 -23 124 0
-25 -29 125 0
25 -29 -125 0
-25 29 -125 0
25 29 125 0
30 33 126 0
-30 33 -126 0
30 -33 -126 0
-30 -33 126 0
34 37 127 0
-34 37 -127 0
34 -37 -127 0
-34 -37 127 0
-38 -39 128 0
38 -39 -128 0
-38 39 -128 0
38 39 128 0
-40 -42 129 0
40 -42 -129 0
-40 42 -129 0
40 42 129 0
-43 -47 130 0
43 -47 -130 0
-43 47 -130 0
43 47 130 0
-49 50 131 0
49 50 -131 0
-49 -50 -131 0
49 -50 131 0
118 -119 132 0
-118 -119 -132 0
118 119 -132 0
-118 119 132 0
120 -121 133 0
-120 -121 -133 0
120 121 -133 0
-120 121 133 0
122 -123 134 0
-122 -123 -134 0
122 123 -134 0
-122 123 134 0
124 -125 135 0
-124 -125 -135 0
124 125 -135 0
-124 125 135 0
126 -127 136 0
-126 -127 -136 0
126 127 -136 0
-126 127 136 0
128 -129 137 0
-128 -129 -137 0
128 129 -137 0
-128 129 137 0
130 -131 138 0
-130 -131 -138 0
130 131 -138 0
-130 131 138 0
132 -133 139 0
-132 -133 -139 0
132 133 -139 0
-132 133 139 0
134 -135 140 0
-134 -135 -140 0
134 135 -140 0
-134 135 140 0
136 -137 141 0
-136 -137 -141 0
136 137 -141 0
-136 137 141 0
138 -139 142 0
-138 -139 -142 0
138 139 -142 0
-138 139 142 0
140 -141 143 0
-140 -141 -143 0
140 141 -143 0
-140 141 143 0
142 143 0
-142 -143 0
-2 -3 144 0
2 -3 -144 0
-2 3 -144 0
2 3 144 0
-4 5 145 0
4 5 -145 0
-4 -5 -145 0
4 -5 145 0
7 -11 146 0
-7 -11 -146 0
7 11 -146 0
-7 11 146 0
-12 -13 147 0
12 -13 -147 0
-12 13 -147 0
12 13 147 0
-14 -15 148 0
14 -15 -148 0
-14 15 -148 0
14 15 148 0
-17 -18 149 0
17 -18 -149 0
-17 18 -149 0
17 18 149 0
-19 26 150 0
19 26 -150 0
-19 -26 -150 0
19 -26 150 0
-31 -36 151 0
31 -36 -151 0
-31 36 -151 0
31 36 151 0
-38 -39 152 0
38 -39 -152 0
-38 39 -152 0
38 39 152 0
-41 -44 153 0
41 -44 -153 0
-41 44 -153 0
41 44 153 0
-47 -49 154 0
47 -49 -154 0
-47 49 -154 0
47 49 154 0
144 -145 155 0
-144 -145 -155 0
144 145 -155 0
-144 145 155 0
146 -147 156 0
-146 -147 -156 0
146 147 -156 0
-146 147 156 0
148 -149 157 0
-148 -149 -157 0
148 149 -157 0
-148 149 157 0
150 -151 158 0
-150 -151 -158 0
150 151 -158 0
-150 151 158 0
152 -153 159 0
-152 -153 -159 0
152 153 -159 0
-152 153 159 0
154 -155 160 0
-154 -155 -160 0
154 155 -160 0
-154 155 160 0
156 -157 161 0
-156 -157 -161 0
156 157 -161 0
-156 157 161 0
158 -159 162 0
-158 -159 -162 0
158 159 -162 0
-158 159 162 0
-160 -161 162 0
160 -161 -162 0
-160 161 -162 0
160 161 162 0
-1 3 163 0
1 3 -163 0
-1 -3 -163 0
1 -3 163 0
6 8 164 0
-6 8 -164 0
6 -8 -164 0
-6 -8 164 0
12 14 165 0
-12 14 -165 0
12 -14 -165 0
-12 -14 165 0
16 24 166 0
-16 24 -166 0
16 -24 -166 0
-16 -24 166 0
26 27 167 0
-26 27 -167 0
26 -27 -167 0
-26 -27 167 0
29 30 168 0
-29 30 -168 0
29 -30 -168 0
-29 -30 168 0
31 32 169 0
-31 32 -169 0
31 -32 -169 0
-31 -32 169 0
33 36 170 0
-33 36 -170 0
33 -36 -170 0
-33 -36 170 0
37 38 171 0
-37 38 -171 0
37 -38 -171 0
-37 -38 171 0
40 -41 172 0
-40 -41 -172 0
40 41 -172 0
-40 41 172 0
-42 -45 173 0
42 -45 -173 0
-42 45 -173 0
42 45 173 0
162 -163 174 0
-162 -163 -174 0
162 163 -174 0
-162 163 174 0
164 -165 175 0
-164 -165 -175 0
164 165 -175 0
-164 165 175 0
166 -167 176 0
-166 -167 -176 0
166 167 -176 0
-166 167 176 0
168 -169 177 0
-168 -169 -177 0
168 169 -177 0
-168 169 177 0
170 -171 178 0
-170 -171 -178 0
170 171 -178 0
-170 171 178 0
172 -173 179 0
-172 -173 -179 0
172 173 -179 0
-172 173 179 0
174 -175 180 0
-174 -175 -180 0
174 175 -180 0
-174 175 180 0
176 -177 181 0
-176 -177 -181 0
176 177 -181 0
-176 177 181 0
178 -179 182 0
-178 -179 -182 0
178 179 -182 0
-178 179 182 0
-180 -181 182 0
180 -181 -182 0
-180 181 -182 0
180 181 182 0
-2 3 183 0
2 3 -183 0
-2 -3 -183 0
2 -3 183 0
4 5 184 0
-4 5 -184 0
4 -5 -184 0
-4 -5 184 0
-6 7 185 0
6 7 -185 0
-6 -7 -185 0
6 -7 185 0
9 -10 186 0
-9 -10 -186 0
9 10 -186 0
-9 10 186 0
11 -13 187 0
-11 -13 -187 0
11 13 -187 0
-11 13 187 0
15 -16 188 0
-15 -16 -188 0
15 16 -188 0
-15 16 188 0
17 18 189 0
-17 18 -189 0
17 -18 -189 0
-17 -18 189 0
19 23 190 0
-19 23 -190 0
19 -23 -190 0
-19 -23 190 0
-24 -26 191 0
24 -26 -191 0
-24 26 -191 0
24 26 191 0
-27 -28 192 0
27 -28 -192 0
-27 28 -192 0
27 28 192 0
-38 -39 193 0
38 -39 -193 0
-38 39 -193 0
38 39 193 0
-43 46 194 0
43 46 -194 0
-43 -46 -194 0
43 -46 194 0
182 -183 195 0
-182 -183 -195 0
182 183 -195 0
-182 183 195 0
184 -185 196 0
-184 -185 -196 0
184 185 -196 0
-184 185 196 0
186 -187 197 0
-186 -187 -197 0
186 187 -197 0
-186 187 197 0
188 -189 198 0
-188 -189 -198 0
188 189 -198 0
-188 189 198 0
190 -191 199 0
-190 -191 -199 0
190 191 -199 0
-190 191 199 0
192 -193 200 0
-192 -193 -200 0
192 193 -200 0
-192 193 200 0
194 -195 201 0
-194 -195 -201 0
194 195 -201 0
-194 195 201 0
196 -197 202 0
-196 -197 -202 0
196 197 -202 0
-196 197 202 0
198 -199 203 0
-198 -199 -203 0
198 199 -203 0
-198 199 203 0
200 -201 204 0
-200 -201 -204 0
200 201 -204 0
-200 201 204 0
202 -203 205 0
-202 -203 -205 0
202 203 -205 0
-202 203 205 0
204 205 0
-204 -205 0
-2 -3 206 0
2 -3 -206 0
-2 3 -206 0
2 3 206 0
4 6 207 0
-4 6 -207 0
4 -6 -207 0
-4 -6 207 0
7 8 208 0
-7 8 -208 0
7 -8 -208 0
-7 -8 208 0
9 10 209 0
-9 10 -209 0
9 -10 -209 0
-9 -10 209 0
-12 15 210 0
12 15 -210 0
-12 -15 -210 0
12 -15 210 0
16 -17 211 0
-16 -17 -211 0
16 17 -211 0
-16 17 211 0
-19 21 212 0
19 21 -212 0
-19 -21 -212 0
19 -21 212 0
22 23 213 0
-22 23 -213 0
22 -23 -213 0
-22 -23 213 0
-24 -25 214 0
24 -25 -214 0
-24 25 -214 0
24 25 214 0
26 -28 215 0
-26 -28 -215 0
26 28 -215 0
-26 28 215 0
-29 -30 216 0
29 -30 -216 0
-29 30 -216 0
29 30 216 0
-32 35 217 0
32 35 -217 0
-32 -35 -217 0
32 -35 217 0
-36 -37 218 0
36 -37 -218 0
-36 37 -218 0
36 37 218 0
40 41 219 0
-40 41 -219 0
40 -41 -219 0
-40 -41 219 0
-42 -45 220 0
42 -45 -220 0
-42 45 -220 0
42 45 220 0
205 -206 221 0
-205 -206 -221 0
205 206 -221 0
-205 206 221 0
207 -208 222 0
-207 -208 -222 0
207 208 -222 0
-207 208 222 0
209 -210 223 0
-209 -210 -223 0
209 210 -223 0
-209 210 223 0
211 -212 224 0
-211 -212 -224 0
211 212 -224 0
-211 212 224 0
213 -214 225 0
-213 -214 -225 0
213 214 -225 0
-213 214 225 0
215 -216 226 0
-215 -216 -226 0
215 216 -226 0
-215 216 226 0
217 -218 227 0
-217 -218 -227 0
217 218 -227 0
-217 218 227 0
219 -220 228 0
-219 -220 -228 0
219 220 -228 0
-219 220 228 0
221 -222 229 0
-221 -222 -229 0
221 222 -229 0
-221 222 229 0
223 -224 230 0
-223 -224 -230 0
223 224 -230 0
-223 224 230 0
225 -226 231 0
-225 -226 -231 0
225 226 -231 0
-225 226 231 0
227 -228 232 0
-227 -228 -232 0
227 228 -232 0
-227 228 232 0
229 -230 233 0
-229 -230 -233 0
229 230 -233 0
-229 230 233 0
231 -232 234 0
-231 -232 -234 0
231 232 -234 0
-231 232 234 0
233 234 0
-233 -234 0
-1 -3 235 0
1 -3 -235 0
-1 3 -235 0
1 3 235 0
5 -7 236 0
-5 -7 -236 0
5 7 -236 0
-5 7 236 0
11 -13 237 0
-11 -13 -237 0
11 13 -237 0
-11 13 237 0
16 19 238 0
-16 19 -238 0
16 -19 -238 0
-16 -19 238 0
-21 -22 239 0
21 -22 -239 0
-21 22 -239 0
21 22 239 0
-25 26 240 0
25 26 -240 0
-25 -26 -240 0
25 -26 240 0
-27 -28 241 0
27 -28 -241 0
-27 28 -241 0
27 28 241 0
29 -32 242 0
-29 -32 -242 0
29 32 -242 0
-29 32 242 0
35 36 243 0
-35 36 -243 0
35 -36 -243 0
-35 -36 243 0
-37 38 244 0
37 38 -244 0
-37 -38 -244 0
37 -38 244 0
-39 -41 245 0
39 -41 -245 0
-39 41 -245 0
39 41 245 0
-42 -43 246 0
42 -43 -246 0
-42 43 -246 0
42 43 246 0
47 49 247 0
-47 49 -247 0
47 -49 -247 0
-47 -49 247 0
234 -235 248 0
-234 -235 -248 0
234 235 -248 0
-234 235 248 0
236 -237 249 0
-236 -237 -249 0
236 237 -249 0
-236 237 249 0
238 -239 250 0
-238 -239 -250 0
238 239 -250 0
-238 239 250 0
240 -241 251 0
-240 -241 -251 0
240 241 -251 0
-240 241 251 0
242 -243 252 0
-242 -243 -252 0
242 243 -252 0
-242 243 252 0
244 -245 253 0
-244 -245 -253 0
244 245 -253 0
-244 245 253 0
246 -247 254 0
-246 -247 -254 0
246 247 -254 0
-246 247 254 0
248 -249 255 0
-248 -249 -255 0
248 249 -255 0
-248 249 255 0
250 -251 256 0
-250 -251 -256 0
250 251 -256 0
-250 251 256 0
252 -253 257 0
-252 -253 -257 0
252 253 -257 0
-252 253 257 0
254 -255 258 0
-254 -255 -258 0
254 255 -258 0
-254 255 258 0
256 -257 259 0
-256 -257 -259 0
256 257 -259 0
-256 257 259 0
258 259 0
-258 -259 0
1 2 260 0
-1 2 -260 0
1 -2 -260 0
-1 -2 260 0
3 4 261 0
-3 4 -261 0
3 -4 -261 0
-3 -4 261 0
5 7 262 0
-5 7 -262 0
5 -7 -262 0
-5 -7 262 0
-8 -9 263 0
8 -9 -263 0
-8 9 -263 0
8 9 263 0
-12 -13 264 0
12 -13 -264 0
-12 13 -264 0
12 13 264 0
-15 -16 265 0
15 -16 -265 0
-15 16 -265 0
15 16 265 0
-17 18 266 0
17 18 -266 0
-17 -18 -266 0
17 -18 266 0
20 -22 267 0
-20 -22 -267 0
20 22 -267 0
-20 22 267 0
24 26 268 0
-24 26 -268 0
24 -26 -268 0
-24 -26 268 0
-28 29 269 0
28 29 -269 0
-28 -29 -269 0
28 -29 269 0
-30 31 270 0
30 31 -270 0
-30 -31 -270 0
30 -31 270 0
36 37 271 0
-36 37 -271 0
36 -37 -271 0
-36 -37 271 0
38 39 272 0
-38 39 -272 0
38 -39 -272 0
-38 -39 272 0
40 -42 273 0
-40 -42 -273 0
40 42 -273 0
-40 42 273 0
-43 45 274 0
43 45 -274 0
-43 -45 -274 0
43 -45 274 0
46 49 275 0
-46 49 -275 0
46 -49 -275 0
-46 -49 275 0
259 -260 276 0
-259 -260 -276 0
259 260 -276 0
-259 260 276 0
261 -262 277 0
-261 -262 -277 0
261 262 -277 0
-261 262 277 0
263 -264 278 0
-263 -264 -278 0
263 264 -278 0
-263 264 278 0
265 -266 279 0
-265 -266 -279 0
265 266 -279 0
-265 266 279 0
267 -268 280 0
-267 -268 -280 0
267 268 -280 0
-267 268 280 0
269 -270 281 0
-269 -270 -281 0
269 270 -281 0
-269 270 281 0
271 -272 282 0
-271 -272 -282 0
271 272 -282 0
-271 272 282 0
273 -274 283 0
-273 -274 -283 0
273 274 -283 0
-273 274 283 0
275 -276 284 0
-275 -276 -284 0
275 276 -284 0
-275 276 284 0
277 -278 285 0
-277 -278 -285 0
277 278 -285 0
-277 278 285 0
279 -280 286 0
-279 -280 -286 0
279 280 -286 0
-279 280 286 0
281 -282 287 0
-281 -282 -287 0
281 282 -287 0
-281 282 287 0
283 -284 288 0
-283 -284 -288 0
283 284 -288 0
-283 284 288 0
285 -286 289 0
-285 -286 -289 0
285 286 -289 0
-285 286 289 0
-287 -288 289 0
287 -288 -289 0
-287 288 -289 0
287 288 289 0
